(declare-rel state (Bool Int Int Bool Bool Bool Int Int Int Int Int Bool Bool Bool Int Int Int Int Int Int Int Int Int Int Int Int Int Int Int Int Int Int Int Int Int Int Bool Int Int Bool Bool Bool Int Int))
(declare-var |_OK_| Bool)
(declare-var |_OK_.next| Bool)
(declare-var |call_First.First| Int)
(declare-var |call_First.First.next| Int)
(declare-var |call_First.flby| Int)
(declare-var |call_First.flby.next| Int)
(declare-var |call_Sofar.Sofar| Bool)
(declare-var |call_Sofar.Sofar.next| Bool)
(declare-var |call_Sofar.flby| Bool)
(declare-var |call_Sofar.flby.next| Bool)
(declare-var |call_excludes3.excludes| Bool)
(declare-var |call_excludes3.excludes.next| Bool)
(declare-var |call_synapse.dirty_s| Int)
(declare-var |call_synapse.dirty_s.next| Int)
(declare-var |call_synapse.flby| Int)
(declare-var |call_synapse.flby.next| Int)
(declare-var |call_synapse.flby2| Int)
(declare-var |call_synapse.flby2.next| Int)
(declare-var |call_synapse.flby3| Int)
(declare-var |call_synapse.flby3.next| Int)
(declare-var |call_synapse.flby4| Int)
(declare-var |call_synapse.flby4.next| Int)
(declare-var |call_synapse.garde_s1| Bool)
(declare-var |call_synapse.garde_s1.next| Bool)
(declare-var |call_synapse.garde_s2| Bool)
(declare-var |call_synapse.garde_s2.next| Bool)
(declare-var |call_synapse.garde_s3| Bool)
(declare-var |call_synapse.garde_s3.next| Bool)
(declare-var |call_synapse.invalid_s| Int)
(declare-var |call_synapse.invalid_s.next| Int)
(declare-var |call_synapse.ite| Int)
(declare-var |call_synapse.ite.next| Int)
(declare-var |call_synapse.ite10| Int)
(declare-var |call_synapse.ite10.next| Int)
(declare-var |call_synapse.ite11| Int)
(declare-var |call_synapse.ite11.next| Int)
(declare-var |call_synapse.ite12| Int)
(declare-var |call_synapse.ite12.next| Int)
(declare-var |call_synapse.ite13| Int)
(declare-var |call_synapse.ite13.next| Int)
(declare-var |call_synapse.ite14| Int)
(declare-var |call_synapse.ite14.next| Int)
(declare-var |call_synapse.ite15| Int)
(declare-var |call_synapse.ite15.next| Int)
(declare-var |call_synapse.ite16| Int)
(declare-var |call_synapse.ite16.next| Int)
(declare-var |call_synapse.ite17| Int)
(declare-var |call_synapse.ite17.next| Int)
(declare-var |call_synapse.ite18| Int)
(declare-var |call_synapse.ite18.next| Int)
(declare-var |call_synapse.ite2| Int)
(declare-var |call_synapse.ite2.next| Int)
(declare-var |call_synapse.ite3| Int)
(declare-var |call_synapse.ite3.next| Int)
(declare-var |call_synapse.ite4| Int)
(declare-var |call_synapse.ite4.next| Int)
(declare-var |call_synapse.ite5| Int)
(declare-var |call_synapse.ite5.next| Int)
(declare-var |call_synapse.ite6| Int)
(declare-var |call_synapse.ite6.next| Int)
(declare-var |call_synapse.ite7| Int)
(declare-var |call_synapse.ite7.next| Int)
(declare-var |call_synapse.ite8| Int)
(declare-var |call_synapse.ite8.next| Int)
(declare-var |call_synapse.ite9| Int)
(declare-var |call_synapse.ite9.next| Int)
(declare-var |call_synapse.mem_init_s| Int)
(declare-var |call_synapse.mem_init_s.next| Int)
(declare-var |call_synapse.valid_s| Int)
(declare-var |call_synapse.valid_s.next| Int)
(declare-var |dirty_s| Int)
(declare-var |dirty_s.next| Int)
(declare-var |env| Bool)
(declare-var |env.next| Bool)
(declare-var |invalid_s| Int)
(declare-var |invalid_s.next| Int)
(declare-var |mem_init_s| Int)
(declare-var |mem_init_s.next| Int)
(declare-var |param_e_s1| Bool)
(declare-var |param_e_s1.next| Bool)
(declare-var |param_e_s2| Bool)
(declare-var |param_e_s2.next| Bool)
(declare-var |param_e_s3| Bool)
(declare-var |param_e_s3.next| Bool)
(declare-var |param_init_invalid_s| Int)
(declare-var |param_init_invalid_s.next| Int)
(declare-var |valid_s| Int)
(declare-var |valid_s.next| Int)

(define-fun .init () Bool
(let ((.def_166 (= call_synapse.ite10 call_synapse.ite9)))
(let ((.def_161 (not param_e_s3)))
(let ((.def_167 (or .def_161 .def_166)))
(let ((.def_164 (= call_synapse.ite4 call_synapse.ite3)))
(let ((.def_165 (or .def_161 .def_164)))
(let ((.def_168 (and .def_165 .def_167)))
(let ((.def_160 (= call_synapse.ite16 call_synapse.ite15)))
(let ((.def_162 (or .def_160 .def_161)))
(let ((.def_169 (and .def_162 .def_168)))
(let ((.def_158 (not call_synapse.garde_s1)))
(let ((.def_156 (= call_synapse.ite13 0)))
(let ((.def_159 (or .def_156 .def_158)))
(let ((.def_170 (and .def_159 .def_169)))
(let ((.def_153 (= call_synapse.ite14 1)))
(let ((.def_151 (not call_synapse.garde_s2)))
(let ((.def_154 (or .def_151 .def_153)))
(let ((.def_149 (= call_synapse.ite8 0)))
(let ((.def_152 (or .def_149 .def_151)))
(let ((.def_155 (and .def_152 .def_154)))
(let ((.def_171 (and .def_155 .def_170)))
(let ((.def_146 (= call_synapse.ite15 1)))
(let ((.def_143 (not call_synapse.garde_s3)))
(let ((.def_147 (or .def_143 .def_146)))
(let ((.def_141 (= call_synapse.ite9 0)))
(let ((.def_144 (or .def_141 .def_143)))
(let ((.def_148 (and .def_144 .def_147)))
(let ((.def_172 (and .def_148 .def_171)))
(let ((.def_139 (= call_synapse.flby param_init_invalid_s)))
(let ((.def_173 (and .def_139 .def_172)))
(let ((.def_138 (= call_synapse.mem_init_s call_synapse.flby2)))
(let ((.def_174 (and .def_138 .def_173)))
(let ((.def_137 (= call_synapse.flby3 0)))
(let ((.def_175 (and .def_137 .def_174)))
(let ((.def_136 (= call_synapse.flby4 0)))
(let ((.def_176 (and .def_136 .def_175)))
(let ((.def_133 (<= 0 param_init_invalid_s)))
(let ((.def_134 (and call_excludes3.excludes .def_133)))
(let ((.def_135 (= call_Sofar.flby .def_134)))
(let ((.def_177 (and .def_135 .def_176)))
(let ((.def_132 (= call_First.flby param_init_invalid_s)))
(let ((.def_178 (and .def_132 .def_177)))
(let ((.def_113 (not env)))
(let ((.def_106 (* (- 1) invalid_s)))
(let ((.def_107 (* (- 1) valid_s)))
(let ((.def_108 (+ .def_107 .def_106)))
(let ((.def_109 (* (- 1) dirty_s)))
(let ((.def_110 (+ .def_109 .def_108)))
(let ((.def_111 (+ call_First.First .def_110)))
(let ((.def_112 (= .def_111 0)))
(let ((.def_114 (or .def_112 .def_113)))
(let ((.def_116 (= .def_114 _OK_)))
(let ((.def_98 (= call_synapse.invalid_s invalid_s)))
(let ((.def_117 (and .def_98 .def_116)))
(let ((.def_96 (= call_synapse.valid_s valid_s)))
(let ((.def_118 (and .def_96 .def_117)))
(let ((.def_94 (= call_synapse.dirty_s dirty_s)))
(let ((.def_119 (and .def_94 .def_118)))
(let ((.def_92 (= call_synapse.mem_init_s mem_init_s)))
(let ((.def_120 (and .def_92 .def_119)))
(let ((.def_90 (= call_Sofar.Sofar env)))
(let ((.def_121 (and .def_90 .def_120)))
(let ((.def_82 (= call_synapse.ite5 call_synapse.ite6)))
(let ((.def_83 (or param_e_s1 .def_82)))
(let ((.def_80 (= call_synapse.ite6 call_synapse.ite)))
(let ((.def_70 (not param_e_s1)))
(let ((.def_81 (or .def_70 .def_80)))
(let ((.def_84 (and .def_81 .def_83)))
(let ((.def_76 (= call_synapse.ite12 call_synapse.ite7)))
(let ((.def_77 (or .def_70 .def_76)))
(let ((.def_85 (and .def_77 .def_84)))
(let ((.def_73 (= call_synapse.ite11 call_synapse.ite12)))
(let ((.def_74 (or param_e_s1 .def_73)))
(let ((.def_86 (and .def_74 .def_85)))
(let ((.def_69 (= call_synapse.ite18 call_synapse.ite13)))
(let ((.def_71 (or .def_69 .def_70)))
(let ((.def_87 (and .def_71 .def_86)))
(let ((.def_66 (= call_synapse.ite17 call_synapse.ite18)))
(let ((.def_67 (or param_e_s1 .def_66)))
(let ((.def_88 (and .def_67 .def_87)))
(let ((.def_122 (and .def_88 .def_121)))
(let ((.def_58 (= call_synapse.ite5 call_synapse.ite4)))
(let ((.def_59 (or param_e_s2 .def_58)))
(let ((.def_55 (= call_synapse.ite5 call_synapse.ite2)))
(let ((.def_44 (not param_e_s2)))
(let ((.def_56 (or .def_44 .def_55)))
(let ((.def_60 (and .def_56 .def_59)))
(let ((.def_51 (= call_synapse.ite11 call_synapse.ite8)))
(let ((.def_52 (or .def_44 .def_51)))
(let ((.def_61 (and .def_52 .def_60)))
(let ((.def_48 (= call_synapse.ite10 call_synapse.ite11)))
(let ((.def_49 (or param_e_s2 .def_48)))
(let ((.def_62 (and .def_49 .def_61)))
(let ((.def_43 (= call_synapse.ite17 call_synapse.ite14)))
(let ((.def_45 (or .def_43 .def_44)))
(let ((.def_63 (and .def_45 .def_62)))
(let ((.def_40 (= call_synapse.ite16 call_synapse.ite17)))
(let ((.def_41 (or param_e_s2 .def_40)))
(let ((.def_64 (and .def_41 .def_63)))
(let ((.def_123 (and .def_64 .def_122)))
(let ((.def_37 (= call_synapse.flby2 call_synapse.invalid_s)))
(let ((.def_124 (and .def_37 .def_123)))
(let ((.def_34 (= call_synapse.flby3 call_synapse.valid_s)))
(let ((.def_125 (and .def_34 .def_124)))
(let ((.def_31 (= call_synapse.flby4 call_synapse.dirty_s)))
(let ((.def_126 (and .def_31 .def_125)))
(let ((.def_28 (= call_synapse.flby call_synapse.mem_init_s)))
(let ((.def_127 (and .def_28 .def_126)))
(let ((.def_20 (and param_e_s2 param_e_s1)))
(let ((.def_19 (and param_e_s3 param_e_s1)))
(let ((.def_21 (or .def_19 .def_20)))
(let ((.def_17 (and param_e_s3 param_e_s2)))
(let ((.def_22 (or .def_17 .def_21)))
(let ((.def_23 (not .def_22)))
(let ((.def_25 (= .def_23 call_excludes3.excludes)))
(let ((.def_128 (and .def_25 .def_127)))
(let ((.def_14 (= call_Sofar.flby call_Sofar.Sofar)))
(let ((.def_129 (and .def_14 .def_128)))
(let ((.def_11 (= call_First.flby call_First.First)))
(let ((.def_130 (and .def_11 .def_129)))
(let ((.def_179 (and .def_130 .def_178)))
.def_179)))))))))))))))))))))))))))))))))))))))))))))))))))))))))))))))))))))))))))))))))))))))))))))))))))))))))))))))))))))))))

(define-fun .trans () Bool
(let ((.def_410 (= call_synapse.invalid_s call_synapse.ite.next)))
(let ((.def_411 (or call_synapse.garde_s1.next .def_410)))
(let ((.def_403 (* (- 1) call_synapse.ite.next)))
(let ((.def_406 (+ call_synapse.invalid_s .def_403)))
(let ((.def_407 (+ call_synapse.dirty_s .def_406)))
(let ((.def_408 (= .def_407 0)))
(let ((.def_335 (not call_synapse.garde_s1.next)))
(let ((.def_409 (or .def_335 .def_408)))
(let ((.def_412 (and .def_409 .def_411)))
(let ((.def_396 (* (- 1) call_synapse.invalid_s)))
(let ((.def_397 (+ .def_396 call_synapse.ite2.next)))
(let ((.def_398 (* (- 1) call_synapse.valid_s)))
(let ((.def_399 (+ .def_398 .def_397)))
(let ((.def_400 (+ call_synapse.dirty_s .def_399)))
(let ((.def_401 (= .def_400 (- 1))))
(let ((.def_326 (not call_synapse.garde_s2.next)))
(let ((.def_402 (or .def_326 .def_401)))
(let ((.def_413 (and .def_402 .def_412)))
(let ((.def_389 (= call_synapse.invalid_s call_synapse.ite2.next)))
(let ((.def_390 (or call_synapse.garde_s2.next .def_389)))
(let ((.def_414 (and .def_390 .def_413)))
(let ((.def_380 (* (- 1) call_synapse.ite3.next)))
(let ((.def_384 (+ call_synapse.invalid_s .def_380)))
(let ((.def_385 (+ call_synapse.valid_s .def_384)))
(let ((.def_386 (+ call_synapse.dirty_s .def_385)))
(let ((.def_387 (= .def_386 1)))
(let ((.def_315 (not call_synapse.garde_s3.next)))
(let ((.def_388 (or .def_315 .def_387)))
(let ((.def_415 (and .def_388 .def_414)))
(let ((.def_378 (= call_synapse.invalid_s call_synapse.ite3.next)))
(let ((.def_379 (or call_synapse.garde_s3.next .def_378)))
(let ((.def_416 (and .def_379 .def_415)))
(let ((.def_371 (= call_synapse.invalid_s call_synapse.ite4.next)))
(let ((.def_372 (or param_e_s3.next .def_371)))
(let ((.def_369 (= call_synapse.ite4.next call_synapse.ite3.next)))
(let ((.def_362 (not param_e_s3.next)))
(let ((.def_370 (or .def_362 .def_369)))
(let ((.def_373 (and .def_370 .def_372)))
(let ((.def_366 (= call_synapse.ite10.next call_synapse.ite9.next)))
(let ((.def_367 (or .def_362 .def_366)))
(let ((.def_374 (and .def_367 .def_373)))
(let ((.def_364 (= call_synapse.valid_s call_synapse.ite10.next)))
(let ((.def_365 (or param_e_s3.next .def_364)))
(let ((.def_375 (and .def_365 .def_374)))
(let ((.def_361 (= call_synapse.ite16.next call_synapse.ite15.next)))
(let ((.def_363 (or .def_361 .def_362)))
(let ((.def_376 (and .def_363 .def_375)))
(let ((.def_359 (= call_synapse.dirty_s call_synapse.ite16.next)))
(let ((.def_360 (or param_e_s3.next .def_359)))
(let ((.def_377 (and .def_360 .def_376)))
(let ((.def_417 (and .def_377 .def_416)))
(let ((.def_354 (= call_synapse.valid_s call_synapse.ite7.next)))
(let ((.def_355 (or call_synapse.garde_s1.next .def_354)))
(let ((.def_350 (* (- 1) call_synapse.ite7.next)))
(let ((.def_351 (+ call_synapse.valid_s .def_350)))
(let ((.def_352 (= .def_351 (- 1))))
(let ((.def_353 (or .def_335 .def_352)))
(let ((.def_356 (and .def_353 .def_355)))
(let ((.def_348 (= call_synapse.valid_s call_synapse.ite8.next)))
(let ((.def_349 (or call_synapse.garde_s2.next .def_348)))
(let ((.def_357 (and .def_349 .def_356)))
(let ((.def_346 (= call_synapse.valid_s call_synapse.ite9.next)))
(let ((.def_347 (or call_synapse.garde_s3.next .def_346)))
(let ((.def_358 (and .def_347 .def_357)))
(let ((.def_418 (and .def_358 .def_417)))
(let ((.def_342 (= call_synapse.dirty_s call_synapse.ite14.next)))
(let ((.def_343 (or call_synapse.garde_s2.next .def_342)))
(let ((.def_340 (= call_synapse.dirty_s call_synapse.ite13.next)))
(let ((.def_341 (or call_synapse.garde_s1.next .def_340)))
(let ((.def_344 (and .def_341 .def_343)))
(let ((.def_338 (= call_synapse.dirty_s call_synapse.ite15.next)))
(let ((.def_339 (or call_synapse.garde_s3.next .def_338)))
(let ((.def_345 (and .def_339 .def_344)))
(let ((.def_419 (and .def_345 .def_418)))
(let ((.def_334 (= call_synapse.ite13.next 0)))
(let ((.def_336 (or .def_334 .def_335)))
(let ((.def_310 (<= 1 call_synapse.invalid_s)))
(let ((.def_333 (= .def_310 call_synapse.garde_s1.next)))
(let ((.def_337 (and .def_333 .def_336)))
(let ((.def_420 (and .def_337 .def_419)))
(let ((.def_328 (= call_synapse.ite14.next 1)))
(let ((.def_329 (or .def_326 .def_328)))
(let ((.def_325 (= call_synapse.ite8.next 0)))
(let ((.def_327 (or .def_325 .def_326)))
(let ((.def_330 (and .def_327 .def_329)))
(let ((.def_322 (<= 1 call_synapse.valid_s)))
(let ((.def_324 (= .def_322 call_synapse.garde_s2.next)))
(let ((.def_331 (and .def_324 .def_330)))
(let ((.def_421 (and .def_331 .def_420)))
(let ((.def_318 (= call_synapse.ite15.next 1)))
(let ((.def_319 (or .def_315 .def_318)))
(let ((.def_314 (= call_synapse.ite9.next 0)))
(let ((.def_316 (or .def_314 .def_315)))
(let ((.def_320 (and .def_316 .def_319)))
(let ((.def_312 (= .def_310 call_synapse.garde_s3.next)))
(let ((.def_321 (and .def_312 .def_320)))
(let ((.def_422 (and .def_321 .def_421)))
(let ((.def_309 (= call_synapse.mem_init_s call_synapse.flby.next)))
(let ((.def_423 (and .def_309 .def_422)))
(let ((.def_308 (= call_synapse.flby2.next call_synapse.ite6.next)))
(let ((.def_424 (and .def_308 .def_423)))
(let ((.def_307 (= call_synapse.flby3.next call_synapse.ite12.next)))
(let ((.def_425 (and .def_307 .def_424)))
(let ((.def_306 (= call_synapse.flby4.next call_synapse.ite18.next)))
(let ((.def_426 (and .def_306 .def_425)))
(let ((.def_302 (<= 0 param_init_invalid_s.next)))
(let ((.def_303 (and call_excludes3.excludes.next .def_302)))
(let ((.def_304 (and call_Sofar.Sofar .def_303)))
(let ((.def_305 (= call_Sofar.flby.next .def_304)))
(let ((.def_427 (and .def_305 .def_426)))
(let ((.def_300 (= call_First.First call_First.flby.next)))
(let ((.def_428 (and .def_300 .def_427)))
(let ((.def_281 (not env.next)))
(let ((.def_274 (* (- 1) invalid_s.next)))
(let ((.def_275 (* (- 1) valid_s.next)))
(let ((.def_276 (+ .def_275 .def_274)))
(let ((.def_277 (* (- 1) dirty_s.next)))
(let ((.def_278 (+ .def_277 .def_276)))
(let ((.def_279 (+ call_First.First.next .def_278)))
(let ((.def_280 (= .def_279 0)))
(let ((.def_282 (or .def_280 .def_281)))
(let ((.def_284 (= .def_282 _OK_.next)))
(let ((.def_269 (= call_synapse.invalid_s.next invalid_s.next)))
(let ((.def_285 (and .def_269 .def_284)))
(let ((.def_267 (= call_synapse.valid_s.next valid_s.next)))
(let ((.def_286 (and .def_267 .def_285)))
(let ((.def_265 (= call_synapse.dirty_s.next dirty_s.next)))
(let ((.def_287 (and .def_265 .def_286)))
(let ((.def_263 (= call_synapse.mem_init_s.next mem_init_s.next)))
(let ((.def_288 (and .def_263 .def_287)))
(let ((.def_261 (= call_Sofar.Sofar.next env.next)))
(let ((.def_289 (and .def_261 .def_288)))
(let ((.def_253 (= call_synapse.ite5.next call_synapse.ite6.next)))
(let ((.def_254 (or param_e_s1.next .def_253)))
(let ((.def_251 (= call_synapse.ite.next call_synapse.ite6.next)))
(let ((.def_241 (not param_e_s1.next)))
(let ((.def_252 (or .def_241 .def_251)))
(let ((.def_255 (and .def_252 .def_254)))
(let ((.def_247 (= call_synapse.ite12.next call_synapse.ite7.next)))
(let ((.def_248 (or .def_241 .def_247)))
(let ((.def_256 (and .def_248 .def_255)))
(let ((.def_244 (= call_synapse.ite11.next call_synapse.ite12.next)))
(let ((.def_245 (or param_e_s1.next .def_244)))
(let ((.def_257 (and .def_245 .def_256)))
(let ((.def_240 (= call_synapse.ite18.next call_synapse.ite13.next)))
(let ((.def_242 (or .def_240 .def_241)))
(let ((.def_258 (and .def_242 .def_257)))
(let ((.def_237 (= call_synapse.ite17.next call_synapse.ite18.next)))
(let ((.def_238 (or param_e_s1.next .def_237)))
(let ((.def_259 (and .def_238 .def_258)))
(let ((.def_290 (and .def_259 .def_289)))
(let ((.def_229 (= call_synapse.ite5.next call_synapse.ite4.next)))
(let ((.def_230 (or param_e_s2.next .def_229)))
(let ((.def_226 (= call_synapse.ite2.next call_synapse.ite5.next)))
(let ((.def_215 (not param_e_s2.next)))
(let ((.def_227 (or .def_215 .def_226)))
(let ((.def_231 (and .def_227 .def_230)))
(let ((.def_222 (= call_synapse.ite11.next call_synapse.ite8.next)))
(let ((.def_223 (or .def_215 .def_222)))
(let ((.def_232 (and .def_223 .def_231)))
(let ((.def_219 (= call_synapse.ite10.next call_synapse.ite11.next)))
(let ((.def_220 (or param_e_s2.next .def_219)))
(let ((.def_233 (and .def_220 .def_232)))
(let ((.def_214 (= call_synapse.ite17.next call_synapse.ite14.next)))
(let ((.def_216 (or .def_214 .def_215)))
(let ((.def_234 (and .def_216 .def_233)))
(let ((.def_211 (= call_synapse.ite16.next call_synapse.ite17.next)))
(let ((.def_212 (or param_e_s2.next .def_211)))
(let ((.def_235 (and .def_212 .def_234)))
(let ((.def_291 (and .def_235 .def_290)))
(let ((.def_208 (= call_synapse.flby2.next call_synapse.invalid_s.next)))
(let ((.def_292 (and .def_208 .def_291)))
(let ((.def_205 (= call_synapse.flby3.next call_synapse.valid_s.next)))
(let ((.def_293 (and .def_205 .def_292)))
(let ((.def_202 (= call_synapse.flby4.next call_synapse.dirty_s.next)))
(let ((.def_294 (and .def_202 .def_293)))
(let ((.def_199 (= call_synapse.flby.next call_synapse.mem_init_s.next)))
(let ((.def_295 (and .def_199 .def_294)))
(let ((.def_191 (and param_e_s2.next param_e_s1.next)))
(let ((.def_190 (and param_e_s3.next param_e_s1.next)))
(let ((.def_192 (or .def_190 .def_191)))
(let ((.def_188 (and param_e_s3.next param_e_s2.next)))
(let ((.def_193 (or .def_188 .def_192)))
(let ((.def_194 (not .def_193)))
(let ((.def_196 (= .def_194 call_excludes3.excludes.next)))
(let ((.def_296 (and .def_196 .def_295)))
(let ((.def_185 (= call_Sofar.flby.next call_Sofar.Sofar.next)))
(let ((.def_297 (and .def_185 .def_296)))
(let ((.def_182 (= call_First.flby.next call_First.First.next)))
(let ((.def_298 (and .def_182 .def_297)))
(let ((.def_113 (not env)))
(let ((.def_106 (* (- 1) invalid_s)))
(let ((.def_107 (* (- 1) valid_s)))
(let ((.def_108 (+ .def_107 .def_106)))
(let ((.def_109 (* (- 1) dirty_s)))
(let ((.def_110 (+ .def_109 .def_108)))
(let ((.def_111 (+ call_First.First .def_110)))
(let ((.def_112 (= .def_111 0)))
(let ((.def_114 (or .def_112 .def_113)))
(let ((.def_116 (= .def_114 _OK_)))
(let ((.def_98 (= call_synapse.invalid_s invalid_s)))
(let ((.def_117 (and .def_98 .def_116)))
(let ((.def_96 (= call_synapse.valid_s valid_s)))
(let ((.def_118 (and .def_96 .def_117)))
(let ((.def_94 (= call_synapse.dirty_s dirty_s)))
(let ((.def_119 (and .def_94 .def_118)))
(let ((.def_92 (= call_synapse.mem_init_s mem_init_s)))
(let ((.def_120 (and .def_92 .def_119)))
(let ((.def_90 (= call_Sofar.Sofar env)))
(let ((.def_121 (and .def_90 .def_120)))
(let ((.def_82 (= call_synapse.ite5 call_synapse.ite6)))
(let ((.def_83 (or param_e_s1 .def_82)))
(let ((.def_80 (= call_synapse.ite6 call_synapse.ite)))
(let ((.def_70 (not param_e_s1)))
(let ((.def_81 (or .def_70 .def_80)))
(let ((.def_84 (and .def_81 .def_83)))
(let ((.def_76 (= call_synapse.ite12 call_synapse.ite7)))
(let ((.def_77 (or .def_70 .def_76)))
(let ((.def_85 (and .def_77 .def_84)))
(let ((.def_73 (= call_synapse.ite11 call_synapse.ite12)))
(let ((.def_74 (or param_e_s1 .def_73)))
(let ((.def_86 (and .def_74 .def_85)))
(let ((.def_69 (= call_synapse.ite18 call_synapse.ite13)))
(let ((.def_71 (or .def_69 .def_70)))
(let ((.def_87 (and .def_71 .def_86)))
(let ((.def_66 (= call_synapse.ite17 call_synapse.ite18)))
(let ((.def_67 (or param_e_s1 .def_66)))
(let ((.def_88 (and .def_67 .def_87)))
(let ((.def_122 (and .def_88 .def_121)))
(let ((.def_58 (= call_synapse.ite5 call_synapse.ite4)))
(let ((.def_59 (or param_e_s2 .def_58)))
(let ((.def_55 (= call_synapse.ite5 call_synapse.ite2)))
(let ((.def_44 (not param_e_s2)))
(let ((.def_56 (or .def_44 .def_55)))
(let ((.def_60 (and .def_56 .def_59)))
(let ((.def_51 (= call_synapse.ite11 call_synapse.ite8)))
(let ((.def_52 (or .def_44 .def_51)))
(let ((.def_61 (and .def_52 .def_60)))
(let ((.def_48 (= call_synapse.ite10 call_synapse.ite11)))
(let ((.def_49 (or param_e_s2 .def_48)))
(let ((.def_62 (and .def_49 .def_61)))
(let ((.def_43 (= call_synapse.ite17 call_synapse.ite14)))
(let ((.def_45 (or .def_43 .def_44)))
(let ((.def_63 (and .def_45 .def_62)))
(let ((.def_40 (= call_synapse.ite16 call_synapse.ite17)))
(let ((.def_41 (or param_e_s2 .def_40)))
(let ((.def_64 (and .def_41 .def_63)))
(let ((.def_123 (and .def_64 .def_122)))
(let ((.def_37 (= call_synapse.flby2 call_synapse.invalid_s)))
(let ((.def_124 (and .def_37 .def_123)))
(let ((.def_34 (= call_synapse.flby3 call_synapse.valid_s)))
(let ((.def_125 (and .def_34 .def_124)))
(let ((.def_31 (= call_synapse.flby4 call_synapse.dirty_s)))
(let ((.def_126 (and .def_31 .def_125)))
(let ((.def_28 (= call_synapse.flby call_synapse.mem_init_s)))
(let ((.def_127 (and .def_28 .def_126)))
(let ((.def_20 (and param_e_s2 param_e_s1)))
(let ((.def_19 (and param_e_s3 param_e_s1)))
(let ((.def_21 (or .def_19 .def_20)))
(let ((.def_17 (and param_e_s3 param_e_s2)))
(let ((.def_22 (or .def_17 .def_21)))
(let ((.def_23 (not .def_22)))
(let ((.def_25 (= .def_23 call_excludes3.excludes)))
(let ((.def_128 (and .def_25 .def_127)))
(let ((.def_14 (= call_Sofar.flby call_Sofar.Sofar)))
(let ((.def_129 (and .def_14 .def_128)))
(let ((.def_11 (= call_First.flby call_First.First)))
(let ((.def_130 (and .def_11 .def_129)))
(let ((.def_299 (and .def_130 .def_298)))
(let ((.def_429 (and .def_299 .def_428)))
.def_429)))))))))))))))))))))))))))))))))))))))))))))))))))))))))))))))))))))))))))))))))))))))))))))))))))))))))))))))))))))))))))))))))))))))))))))))))))))))))))))))))))))))))))))))))))))))))))))))))))))))))))))))))))))))))))))))))))))))))))))))))))))))))))))))))))))))))))))))

(define-fun .property () Bool
_OK_)

(rule (=> .init (state |_OK_| |call_First.First| |call_First.flby| |call_Sofar.Sofar| |call_Sofar.flby| |call_excludes3.excludes| |call_synapse.dirty_s| |call_synapse.flby| |call_synapse.flby2| |call_synapse.flby3| |call_synapse.flby4| |call_synapse.garde_s1| |call_synapse.garde_s2| |call_synapse.garde_s3| |call_synapse.invalid_s| |call_synapse.ite| |call_synapse.ite10| |call_synapse.ite11| |call_synapse.ite12| |call_synapse.ite13| |call_synapse.ite14| |call_synapse.ite15| |call_synapse.ite16| |call_synapse.ite17| |call_synapse.ite18| |call_synapse.ite2| |call_synapse.ite3| |call_synapse.ite4| |call_synapse.ite5| |call_synapse.ite6| |call_synapse.ite7| |call_synapse.ite8| |call_synapse.ite9| |call_synapse.mem_init_s| |call_synapse.valid_s| |dirty_s| |env| |invalid_s| |mem_init_s| |param_e_s1| |param_e_s2| |param_e_s3| |param_init_invalid_s| |valid_s|)))
(rule (=> (and (state |_OK_| |call_First.First| |call_First.flby| |call_Sofar.Sofar| |call_Sofar.flby| |call_excludes3.excludes| |call_synapse.dirty_s| |call_synapse.flby| |call_synapse.flby2| |call_synapse.flby3| |call_synapse.flby4| |call_synapse.garde_s1| |call_synapse.garde_s2| |call_synapse.garde_s3| |call_synapse.invalid_s| |call_synapse.ite| |call_synapse.ite10| |call_synapse.ite11| |call_synapse.ite12| |call_synapse.ite13| |call_synapse.ite14| |call_synapse.ite15| |call_synapse.ite16| |call_synapse.ite17| |call_synapse.ite18| |call_synapse.ite2| |call_synapse.ite3| |call_synapse.ite4| |call_synapse.ite5| |call_synapse.ite6| |call_synapse.ite7| |call_synapse.ite8| |call_synapse.ite9| |call_synapse.mem_init_s| |call_synapse.valid_s| |dirty_s| |env| |invalid_s| |mem_init_s| |param_e_s1| |param_e_s2| |param_e_s3| |param_init_invalid_s| |valid_s|) .trans) (state |_OK_.next| |call_First.First.next| |call_First.flby.next| |call_Sofar.Sofar.next| |call_Sofar.flby.next| |call_excludes3.excludes.next| |call_synapse.dirty_s.next| |call_synapse.flby.next| |call_synapse.flby2.next| |call_synapse.flby3.next| |call_synapse.flby4.next| |call_synapse.garde_s1.next| |call_synapse.garde_s2.next| |call_synapse.garde_s3.next| |call_synapse.invalid_s.next| |call_synapse.ite.next| |call_synapse.ite10.next| |call_synapse.ite11.next| |call_synapse.ite12.next| |call_synapse.ite13.next| |call_synapse.ite14.next| |call_synapse.ite15.next| |call_synapse.ite16.next| |call_synapse.ite17.next| |call_synapse.ite18.next| |call_synapse.ite2.next| |call_synapse.ite3.next| |call_synapse.ite4.next| |call_synapse.ite5.next| |call_synapse.ite6.next| |call_synapse.ite7.next| |call_synapse.ite8.next| |call_synapse.ite9.next| |call_synapse.mem_init_s.next| |call_synapse.valid_s.next| |dirty_s.next| |env.next| |invalid_s.next| |mem_init_s.next| |param_e_s1.next| |param_e_s2.next| |param_e_s3.next| |param_init_invalid_s.next| |valid_s.next|)))
(query (and (state |_OK_| |call_First.First| |call_First.flby| |call_Sofar.Sofar| |call_Sofar.flby| |call_excludes3.excludes| |call_synapse.dirty_s| |call_synapse.flby| |call_synapse.flby2| |call_synapse.flby3| |call_synapse.flby4| |call_synapse.garde_s1| |call_synapse.garde_s2| |call_synapse.garde_s3| |call_synapse.invalid_s| |call_synapse.ite| |call_synapse.ite10| |call_synapse.ite11| |call_synapse.ite12| |call_synapse.ite13| |call_synapse.ite14| |call_synapse.ite15| |call_synapse.ite16| |call_synapse.ite17| |call_synapse.ite18| |call_synapse.ite2| |call_synapse.ite3| |call_synapse.ite4| |call_synapse.ite5| |call_synapse.ite6| |call_synapse.ite7| |call_synapse.ite8| |call_synapse.ite9| |call_synapse.mem_init_s| |call_synapse.valid_s| |dirty_s| |env| |invalid_s| |mem_init_s| |param_e_s1| |param_e_s2| |param_e_s3| |param_init_invalid_s| |valid_s|) (not .property)))
